data/benchmarks/bayes/90-12-10-q.cnf
p cnf 672 603
c weights 0.40546 0.5945400000000001 1 1 1 1 1 1 1 1 1 1 1 1 1 1 1 1 1 1 1 1 1 1 1 1 1 1 1 1 1 1 1 1 1 1 1 1 1 1 1 1 1 1 1 1 1 1 1 1 1 1 1 1 1 1 1 1 1 1 1 1 1 1 1 1 1 1 1 1 1 1 1 1 1 1 1 1 1 1 1 1 1 1 1 1 1 1 1 1 1 1 1 1 1 1 1 1 1 1 1 1 1 1 1 1 1 1 1 1 1 1 1 1 1 1 1 1 1 1 1 1 1 1 1 1 1 1 1 1 1 1 1 1 1 1 1 1 1 1 1 1 1 1 1 1 1 1 1 1 1 1 1 1 1 1 1 1 1 1 1 1 1 1 1 1 1 1 1 1 1 1 1 1 1 1 1 1 1 1 1 1 1 1 1 1 1 1 1 1 1 1 1 1 1 1 1 1 1 1 1 1 1 1 1 1 1 1 1 1 1 1 1 1 1 1 1 1 1 1 1 1 1 1 1 1 1 1 1 1 1 1 1 1 1 1 1 1 1 1 1 1 1 1 1 1 1 1 1 1 1 1 1 1 1 1 1 1 1 1 1 1 1 1 1 1 1 1 1 1 1 1 1 1 1 1 1 1 1 1 1 1 1 1 1 1 1 1 0.5 0.5 0.5 0.5 0.5 0.5 0.5 0.5 0.5 0.5 0.5 0.5 0.5 0.5 0.5 0.5 0.5 0.5 0.5 0.5 0.5 0.5 0.5 0.5 0.5 0.5 0.5 0.5 0.5 0.5 0.5 0.5 0.5 0.5 0.5 0.5 0.5 0.5 0.5 0.5 0.5 0.5 0.5 0.5 0.5 0.5 0.5 0.5 0.5 0.5 0.5 0.5 0.5 0.5 0.5 0.5 0.567388 0.432612 0.914833 0.08516699999999999 0.290319 0.709681 0.636518 0.36348199999999997 0.5 0.5 0.5 0.5 0.5 0.5 0.5 0.5 0.5 0.5 0.5 0.5 0.5 0.5 0.5 0.5 0.5 0.5 0.5 0.5 0.5 0.5 0.5 0.5 0.5 0.5 0.5 0.5 0.5 0.5 0.5 0.5 0.5 0.5 0.5 0.5 0.5 0.5 0.5 0.5 0.5 0.5 0.5 0.5 0.5 0.5 0.5 0.5 0.957841 0.042158999999999947 0.308675 0.691325 0.235379 0.764621 0.44815 0.55185 0.5 0.5 0.5 0.5 0.5 0.5 0.5 0.5 0.23506 0.76494 0.291524 0.708476 0.701734 0.29826600000000003 0.636009 0.36399099999999995 0.5 0.5 0.5 0.5 0.5 0.5 0.5 0.5 0.5 0.5 0.5 0.5 0.5 0.5 0.5 0.5 0.5 0.5 0.5 0.5 0.5 0.5 0.5 0.5 0.5 0.5 0.5 0.5 0.5 0.5 0.5 0.5 0.5 0.5 0.5 0.5 0.5 0.5 0.5 0.5 0.5 0.5 0.5 0.5 0.5 0.5 0.5 0.5 0.5 0.5 0.5 0.5 0.5 0.5 0.5 0.5 0.5 0.5 0.5 0.5 0.5 0.5 0.5 0.5 0.5 0.5 0.5 0.5 0.5 0.5 0.5 0.5 0.5 0.5 0.5 0.5 0.5 0.5 0.5 0.5 0.5 0.5 0.5 0.5 0.5 0.5 0.5 0.5 0.5 0.5 0.5 0.5 0.187341 0.812659 0.496144 0.5038560000000001 0.5 0.5 0.5 0.5 0.5 0.5 0.5 0.5 0.5 0.5 0.5 0.5 0.5 0.5 0.5 0.5 0.5 0.5 0.5 0.5 0.5 0.5 0.5 0.5 0.5 0.5 0.5 0.5 0.5 0.5 0.5 0.5 0.5 0.5 0.5 0.5 0.5 0.5 0.5 0.5 0.5 0.5 0.5 0.5 0.5 0.5 0.5 0.5 0.683236 0.31676400000000005 0.378715 0.621285 0.923777 0.07622300000000004 0.575735 0.424265 0.5 0.5 0.5 0.5 0.5 0.5 0.5 0.5 0.5 0.5 0.5 0.5 0.5 0.5 0.5 0.5 0.5 0.5 0.5 0.5 0.5 0.5 0.5 0.5 0.5 0.5 0.5 0.5 0.5 0.5 0.5 0.5 0.5 0.5 0.5 0.5 0.5 0.5 0.5 0.5 0.5 0.5 0.5 0.5 0.741355 0.258645 0.866716 0.13328399999999996 0.479481 0.520519 0.11929 0.88071 0.982263 0.017737000000000003 0.101048 0.898952 0.692857 0.30714300000000005 0.995844 0.0041560000000000485 0.5 0.5 0.5 0.5 0.5 0.5 0.5 0.5 0.5 0.5 0.5 0.5 0.5 0.5 0.5 0.5 0.279836 0.720164 0.433774 0.566226 0.103382 0.896618 0.874262 0.12573800000000002 0.5 0.5 0.5 0.5 0.5 0.5 0.5 0.5 0.5 0.5 0.5 0.5 0.5 0.5 0.5 0.5 0.5 0.5 0.5 0.5 0.5 0.5 0.5 0.5 0.5 0.5 0.5 0.5 0.5 0.5 0.5 0.5 0.5 0.5 0.5 0.5 0.5 0.5 0.5 0.5 0.5 0.5 0.5 0.5 0.5 0.5 0.5 0.5 0.5 0.5 0.5 0.5 0.5 0.5 0.5 0.5 0.5 0.5 0.5 0.5 0.5 0.5 0.5 0.5 0.5 0.5 0.5 0.5 0.5 0.5 0.5 0.5 0.5 0.5 0.5 0.5 0.981277 0.018723000000000045 0.907512 0.09248800000000001 0.680532 0.319468 0.679729 0.320271 0.5 0.5 0.5 0.5 0.5 0.5 0.5 0.5 0.5 0.5 0.5 0.5 0.5 0.5 0.5 0.5 0.5 0.5 0.5 0.5 0.5 0.5 0.5 0.5 0.240781 0.759219 0.701654 0.298346 0.247519 0.752481 0.409961 0.590039 0.5 0.5 0.5 0.5 0.5 0.5 0.5 0.5 0.5 0.5 0.5 0.5 0.5 0.5 0.5 0.5 0.5 0.5 0.5 0.5 0.5 0.5 0.5 0.5 0.5 0.5 0.5 0.5 0.5 0.5 0.5 0.5 0.5 0.5 0.5 0.5 0.5 0.5 0.5 0.5 0.5 0.5 0.5 0.5 0.234013 0.765987 0.703637 0.29636300000000004 0.540882 0.459118 0.427673 0.572327 0.5 0.5 0.5 0.5 0.5 0.5 0.5 0.5 0.5 0.5 0.5 0.5 0.5 0.5 0.5 0.5 0.365761 0.634239 0.0365017 0.9634983 0.305544 0.694456 0.11668 0.88332 0.5 0.5 0.5 0.5 0.5 0.5 0.5 0.5 0.5 0.5 0.5 0.5 0.5 0.5 0.5 0.5 0.5 0.5 0.5 0.5 0.5 0.5 0.5 0.5 0.5 0.5 0.5 0.5 0.5 0.5 0.5 0.5 0.5 0.5 0.5 0.5 0.5 0.5 0.5 0.5 0.5 0.5 0.5 0.5 0.5 0.5 0.5 0.5 0.5 0.5 0.5 0.5 0.5 0.5 0.5 0.5 0.5 0.5 0.5 0.5 0.5 0.5 0.5 0.5 0.5 0.5 0.5 0.5 0.5 0.5 0.5 0.5 0.5 0.5 0.5 0.5 0.5 0.5 0.5 0.5 0.5 0.5 0.5 0.5 0.5 0.5 0.5 0.5 0.5 0.5 0.5 0.5 0.5 0.5 0.5 0.5 0.5 0.5 0.5 0.5 0.5 0.5 0.5 0.5 0.5 0.5 0.5 0.5 0.619277 0.38072300000000003 0.0157034 0.9842966 0.557193 0.44280699999999995 0.479925 0.5200750000000001 0.5 0.5 0.5 0.5 0.5 0.5 0.5 0.5 0.5 0.5 0.5 0.5 0.5 0.5 0.5 0.5 0.5 0.5 0.5 0.5 0.5 0.5 0.5 0.5 0.5 0.5 0.5 0.5 0.5 0.5 0.5 0.5 0.5 0.5 0.5 0.5 0.5 0.5 0.5 0.5 0.5 0.5 0.5 0.5 0.5 0.5 0.5 0.5 0.5 0.5 0.5 0.5 0.5 0.5 0.5 0.5 0.5 0.5 0.5 0.5 0.5 0.5 0.5 0.5 0.5 0.5 0.5 0.5 0.315099 0.684901 0.859728 0.14027199999999995 0.137917 0.8620829999999999 0.302586 0.697414 0.5 0.5 0.5 0.5 0.5 0.5 0.5 0.5 0.5 0.5 0.5 0.5 0.5 0.5 0.5 0.5 0.5 0.5 0.5 0.5 0.5 0.5 0.5 0.5 0.5 0.5 0.5 0.5 0.5 0.5 0.5 0.5 0.5 0.5 0.5 0.5 0.5 0.5 0.5 0.5 0.5 0.5 0.5 0.5 0.5 0.5 0.5 0.5 0.5 0.5 0.5 0.5 0.5 0.5 0.5 0.5 0.5 0.5 0.5 0.5 0.5 0.5 0.5 0.5 0.5 0.5 0.5 0.5 0.5 0.5 0.5 0.5 0.5 0.5 0.5 0.5 0.5 0.5 0.5 0.5 0.5 0.5 0.5 0.5 0.5 0.5 0.5 0.5 0.5 0.5 0.5 0.5 0.5 0.5 0.5 0.5 0.5 0.5 0.5 0.5 0.5 0.5 0.5 0.5 0.5 0.5 0.5 0.5 0.5 0.5 0.5 0.5 0.5 0.5 0.5 0.5 0.313164 0.686836 0.0923005 0.9076995 0.5 0.5 0.5 0.5 0.5 0.5 0.5 0.5 0.5 0.5 0.5 0.5 0.5 0.5 0.5 0.5 0.0357017 0.9642983 0.947434 0.052566 0.134131 0.865869 0.174106 0.825894 0.793519 0.20648100000000003 0.99557 0.004430000000000045 0.240763 0.7592369999999999 0.458247 0.5417529999999999 0.5 0.5 0.5 0.5 0.5 0.5 0.5 0.5 0.5 0.5 0.5 0.5 0.5 0.5 0.5 0.5 0.938397 0.06160299999999996 0.842137 0.15786299999999998 0.896648 0.103352 0.194508 0.805492 0.5 0.5 0.5 0.5 0.5 0.5 0.5 0.5 0.5 0.5 0.5 0.5 0.5 0.5 0.5 0.5 0.5 0.5 0.5 0.5 0.5 0.5 0.5 0.5 0.5 0.5 0.5 0.5 0.5 0.5 0.5 0.5 0.467722 0.532278 0.128518 0.871482 0.5 0.5 0.5 0.5 0.5 0.5 0.5 0.5 0.5 0.5 0.5 0.5 0.5 0.5 0.5 0.5 0.5 0.5 0.5 0.5 0.5 0.5 0.5 0.5 0.5 0.5 0.5 0.5 0.5 0.5 0.5 0.5 0.5 0.5 0.5 0.5 0.5 0.5 0.5 0.5 0.838623 0.161377 0.733919 0.266081 0.892224 0.10777599999999998 0.306344 0.693656 0.5 0.5 0.5 0.5 0.5 0.5 0.5 0.5 0.5 0.5 0.5 0.5 0.5 0.5 0.5 0.5 0.5 0.5 0.5 0.5 0.5 0.5 0.5 0.5 0.5 0.5 0.5 0.5 0.5 0.5 0.5 0.5 0.5 0.5 0.5 0.5 0.5 0.5 0.5 0.5
-1 -2 0
1 2 0
-2 3 0
2 -3 0
-3 4 0
3 -4 0
-4 5 0
4 -5 0
-5 6 0
5 -6 0
-6 -7 0
6 7 0
-7 -8 0
7 8 0
-8 -9 0
8 9 0
-9 -10 0
9 10 0
-10 -11 0
10 11 0
-11 -12 0
11 12 0
-1 13 0
1 -13 0
-13 -2 -14 0
-13 2 14 0
13 -2 14 0
13 2 14 0
-14 -3 -173 15 0
-14 -3 173 -15 0
-14 3 -174 15 0
-14 3 174 -15 0
14 -3 -175 15 0
14 -3 175 -15 0
14 3 -176 15 0
14 3 176 -15 0
-15 -4 16 0
-15 4 -16 0
15 -4 -16 0
15 4 -16 0
-16 -5 17 0
-16 5 -17 0
16 -5 -17 0
16 5 -17 0
-17 -6 18 0
-17 6 -18 0
17 -6 -18 0
17 6 -18 0
-18 -7 -19 0
-18 7 19 0
18 -7 -19 0
18 7 19 0
-19 -8 -20 0
-19 8 20 0
19 -8 -20 0
19 8 20 0
-20 -9 21 0
-20 9 -21 0
20 -9 21 0
20 9 -21 0
-21 -10 -201 22 0
-21 -10 201 -22 0
-21 10 -202 22 0
-21 10 202 -22 0
21 -10 -203 22 0
21 -10 203 -22 0
21 10 -204 22 0
21 10 204 -22 0
-22 -11 -23 0
-22 11 23 0
22 -11 -23 0
22 11 -23 0
-23 -12 -209 24 0
-23 -12 209 -24 0
-23 12 -210 24 0
-23 12 210 -24 0
23 -12 -211 24 0
23 -12 211 -24 0
23 12 -212 24 0
23 12 212 -24 0
-13 -25 0
13 25 0
-25 -14 26 0
-25 14 -26 0
25 -14 26 0
25 14 -26 0
-26 -15 -27 0
-26 15 27 0
26 -15 27 0
26 15 27 0
-27 -16 28 0
-27 16 28 0
27 -16 -28 0
27 16 28 0
-28 -17 29 0
-28 17 29 0
28 -17 -29 0
28 17 -29 0
-29 -18 30 0
-29 18 -30 0
29 -18 30 0
29 18 -30 0
-30 -19 31 0
-30 19 -31 0
30 -19 -31 0
30 19 31 0
-31 -20 -32 0
-31 20 -32 0
31 -20 32 0
31 20 -32 0
-32 -21 -33 0
-32 21 33 0
32 -21 33 0
32 21 -33 0
-33 -22 -34 0
-33 22 34 0
33 -22 -34 0
33 22 34 0
-34 -23 35 0
-34 23 -35 0
34 -23 -35 0
34 23 35 0
-35 -24 36 0
-35 24 -36 0
35 -24 36 0
35 24 -36 0
-25 -259 37 0
-25 259 -37 0
25 -260 37 0
25 260 -37 0
-37 -26 38 0
-37 26 -38 0
37 -26 38 0
37 26 38 0
-38 -27 39 0
-38 27 39 0
38 -27 -39 0
38 27 -39 0
-39 -28 40 0
-39 28 -40 0
39 -28 -40 0
39 28 40 0
-40 -29 -41 0
-40 29 41 0
40 -29 41 0
40 29 -41 0
-41 -30 -42 0
-41 30 42 0
41 -30 42 0
41 30 42 0
-42 -31 -43 0
-42 31 43 0
42 -31 -43 0
42 31 -43 0
-43 -32 -285 44 0
-43 -32 285 -44 0
-43 32 -286 44 0
-43 32 286 -44 0
43 -32 -287 44 0
43 -32 287 -44 0
43 32 -288 44 0
43 32 288 -44 0
-44 -33 45 0
-44 33 -45 0
44 -33 45 0
44 33 45 0
-45 -34 -46 0
-45 34 -46 0
45 -34 -46 0
45 34 46 0
-46 -35 47 0
-46 35 47 0
46 -35 47 0
46 35 -47 0
-47 -36 -48 0
-47 36 -48 0
47 -36 48 0
47 36 48 0
-37 -49 0
37 49 0
-49 -38 50 0
-49 38 -50 0
49 -38 50 0
49 38 50 0
-50 -39 -311 51 0
-50 -39 311 -51 0
-50 39 -312 51 0
-50 39 312 -51 0
50 -39 -313 51 0
50 -39 313 -51 0
50 39 -314 51 0
50 39 314 -51 0
-51 -40 -315 52 0
-51 -40 315 -52 0
-51 40 -316 52 0
-51 40 316 -52 0
51 -40 -317 52 0
51 -40 317 -52 0
51 40 -318 52 0
51 40 318 -52 0
-52 -41 -53 0
-52 41 -53 0
52 -41 53 0
52 41 -53 0
-53 -42 54 0
-53 42 54 0
53 -42 54 0
53 42 -54 0
-54 -43 -327 55 0
-54 -43 327 -55 0
-54 43 -328 55 0
-54 43 328 -55 0
54 -43 -329 55 0
54 -43 329 -55 0
54 43 -330 55 0
54 43 330 -55 0
-55 -44 -56 0
-55 44 56 0
55 -44 -56 0
55 44 -56 0
-56 -45 -57 0
-56 45 -57 0
56 -45 57 0
56 45 -57 0
-57 -46 58 0
-57 46 -58 0
57 -46 58 0
57 46 -58 0
-58 -47 59 0
-58 47 -59 0
58 -47 -59 0
58 47 59 0
-59 -48 60 0
-59 48 -60 0
59 -48 60 0
59 48 -60 0
-49 61 0
49 -61 0
-61 -50 -62 0
-61 50 -62 0
61 -50 62 0
61 50 -62 0
-62 -51 -63 0
-62 51 63 0
62 -51 -63 0
62 51 -63 0
-63 -52 -64 0
-63 52 64 0
63 -52 -64 0
63 52 -64 0
-64 -53 -65 0
-64 53 -65 0
64 -53 65 0
64 53 -65 0
-65 -54 -369 66 0
-65 -54 369 -66 0
-65 54 -370 66 0
-65 54 370 -66 0
65 -54 -371 66 0
65 -54 371 -66 0
65 54 -372 66 0
65 54 372 -66 0
-66 -55 -67 0
-66 55 -67 0
66 -55 67 0
66 55 -67 0
-67 -56 -68 0
-67 56 68 0
67 -56 68 0
67 56 -68 0
-68 -57 69 0
-68 57 69 0
68 -57 -69 0
68 57 69 0
-69 -58 -385 70 0
-69 -58 385 -70 0
-69 58 -386 70 0
-69 58 386 -70 0
69 -58 -387 70 0
69 -58 387 -70 0
69 58 -388 70 0
69 58 388 -70 0
-70 -59 -71 0
-70 59 -71 0
70 -59 -71 0
70 59 71 0
-71 -60 -72 0
-71 60 -72 0
71 -60 72 0
71 60 72 0
-61 73 0
61 -73 0
-73 -62 74 0
-73 62 74 0
73 -62 -74 0
73 62 -74 0
-74 -63 -75 0
-74 63 75 0
74 -63 75 0
74 63 75 0
-75 -64 76 0
-75 64 76 0
75 -64 -76 0
75 64 -76 0
-76 -65 -411 77 0
-76 -65 411 -77 0
-76 65 -412 77 0
-76 65 412 -77 0
76 -65 -413 77 0
76 -65 413 -77 0
76 65 -414 77 0
76 65 414 -77 0
-77 -66 -78 0
-77 66 78 0
77 -66 78 0
77 66 78 0
-78 -67 79 0
-78 67 -79 0
78 -67 79 0
78 67 79 0
-79 -68 -423 80 0
-79 -68 423 -80 0
-79 68 -424 80 0
-79 68 424 -80 0
79 -68 -425 80 0
79 -68 425 -80 0
79 68 -426 80 0
79 68 426 -80 0
-80 -69 -81 0
-80 69 -81 0
80 -69 -81 0
80 69 81 0
-81 -70 82 0
-81 70 -82 0
81 -70 82 0
81 70 82 0
-82 -71 83 0
-82 71 83 0
82 -71 -83 0
82 71 83 0
-83 -72 84 0
-83 72 84 0
83 -72 -84 0
83 72 84 0
-73 85 0
73 -85 0
-85 -74 -86 0
-85 74 -86 0
85 -74 86 0
85 74 -86 0
-86 -75 -87 0
-86 75 87 0
86 -75 -87 0
86 75 87 0
-87 -76 -88 0
-87 76 -88 0
87 -76 88 0
87 76 -88 0
-88 -77 -89 0
-88 77 89 0
88 -77 -89 0
88 77 89 0
-89 -78 90 0
-89 78 -90 0
89 -78 90 0
89 78 90 0
-90 -79 -91 0
-90 79 91 0
90 -79 -91 0
90 79 -91 0
-91 -80 -92 0
-91 80 -92 0
91 -80 -92 0
91 80 92 0
-92 -81 -93 0
-92 81 93 0
92 -81 -93 0
92 81 -93 0
-93 -82 -94 0
-93 82 94 0
93 -82 -94 0
93 82 94 0
-94 -83 -481 95 0
-94 -83 481 -95 0
-94 83 -482 95 0
-94 83 482 -95 0
94 -83 -483 95 0
94 -83 483 -95 0
94 83 -484 95 0
94 83 484 -95 0
-95 -84 96 0
-95 84 -96 0
95 -84 96 0
95 84 -96 0
-85 -97 0
85 97 0
-97 -86 98 0
-97 86 98 0
97 -86 -98 0
97 86 98 0
-98 -87 99 0
-98 87 -99 0
98 -87 -99 0
98 87 -99 0
-99 -88 100 0
-99 88 -100 0
99 -88 -100 0
99 88 -100 0
-100 -89 101 0
-100 89 -101 0
100 -89 -101 0
100 89 -101 0
-101 -90 -102 0
-101 90 102 0
101 -90 -102 0
101 90 -102 0
-102 -91 -103 0
-102 91 103 0
102 -91 -103 0
102 91 -103 0
-103 -92 -104 0
-103 92 104 0
103 -92 104 0
103 92 104 0
-104 -93 -519 105 0
-104 -93 519 -105 0
-104 93 -520 105 0
-104 93 520 -105 0
104 -93 -521 105 0
104 -93 521 -105 0
104 93 -522 105 0
104 93 522 -105 0
-105 -94 -106 0
-105 94 106 0
105 -94 -106 0
105 94 106 0
-106 -95 107 0
-106 95 -107 0
106 -95 -107 0
106 95 -107 0
-107 -96 108 0
-107 96 -108 0
107 -96 -108 0
107 96 -108 0
-97 -109 0
97 109 0
-109 -98 110 0
-109 98 -110 0
109 -98 -110 0
109 98 -110 0
-110 -99 111 0
-110 99 111 0
110 -99 -111 0
110 99 111 0
-111 -100 -112 0
-111 100 112 0
111 -100 112 0
111 100 112 0
-112 -101 -113 0
-112 101 -113 0
112 -101 -113 0
112 101 113 0
-113 -102 -114 0
-113 102 114 0
113 -102 114 0
113 102 114 0
-114 -103 115 0
-114 103 115 0
114 -103 -115 0
114 103 115 0
-115 -104 -116 0
-115 104 116 0
115 -104 -116 0
115 104 -116 0
-116 -105 -117 0
-116 105 117 0
116 -105 117 0
116 105 -117 0
-117 -106 118 0
-117 106 -118 0
117 -106 118 0
117 106 -118 0
-118 -107 119 0
-118 107 -119 0
118 -107 119 0
118 107 119 0
-119 -108 -120 0
-119 108 120 0
119 -108 120 0
119 108 120 0
-109 -581 121 0
-109 581 -121 0
109 -582 121 0
109 582 -121 0
-121 -110 122 0
-121 110 -122 0
121 -110 -122 0
121 110 122 0
-122 -111 123 0
-122 111 123 0
122 -111 -123 0
122 111 123 0
-123 -112 -591 124 0
-123 -112 591 -124 0
-123 112 -592 124 0
-123 112 592 -124 0
123 -112 -593 124 0
123 -112 593 -124 0
123 112 -594 124 0
123 112 594 -124 0
-124 -113 -595 125 0
-124 -113 595 -125 0
-124 113 -596 125 0
-124 113 596 -125 0
124 -113 -597 125 0
124 -113 597 -125 0
124 113 -598 125 0
124 113 598 -125 0
-125 -114 -126 0
-125 114 -126 0
125 -114 126 0
125 114 -126 0
-126 -115 127 0
-126 115 -127 0
126 -115 -127 0
126 115 -127 0
-127 -116 -607 128 0
-127 -116 607 -128 0
-127 116 -608 128 0
-127 116 608 -128 0
127 -116 -609 128 0
127 -116 609 -128 0
127 116 -610 128 0
127 116 610 -128 0
-128 -117 129 0
-128 117 -129 0
128 -117 129 0
128 117 129 0
-129 -118 130 0
-129 118 130 0
129 -118 -130 0
129 118 130 0
-130 -119 -131 0
-130 119 -131 0
130 -119 -131 0
130 119 131 0
-131 -120 -132 0
-131 120 132 0
131 -120 -132 0
131 120 132 0
-121 -627 133 0
-121 627 -133 0
121 -628 133 0
121 628 -133 0
-133 -122 -134 0
-133 122 -134 0
133 -122 134 0
133 122 134 0
-134 -123 -135 0
-134 123 135 0
134 -123 135 0
134 123 -135 0
-135 -124 -136 0
-135 124 136 0
135 -124 136 0
135 124 136 0
-136 -125 137 0
-136 125 -137 0
136 -125 -137 0
136 125 137 0
-137 -126 -138 0
-137 126 -138 0
137 -126 138 0
137 126 -138 0
-138 -127 -649 139 0
-138 -127 649 -139 0
-138 127 -650 139 0
-138 127 650 -139 0
138 -127 -651 139 0
138 -127 651 -139 0
138 127 -652 139 0
138 127 652 -139 0
-139 -128 -140 0
-139 128 -140 0
139 -128 140 0
139 128 140 0
-140 -129 -141 0
-140 129 141 0
140 -129 -141 0
140 129 -141 0
-141 -130 -142 0
-141 130 -142 0
141 -130 142 0
141 130 142 0
-142 -131 143 0
-142 131 -143 0
142 -131 -143 0
142 131 143 0
-143 -132 144 0
-143 132 -144 0
143 -132 -144 0
143 132 -144 0
144 0
