data/benchmarks/bayes/90-12-10-q.gr
p tw 672 601
43 330
55 66
67 68
99 100
88 100
127 607
116 607
70 82
8 9
40 41
29 41
100 101
65 372
11 23
121 133
41 42
40 315
24 209
73 74
62 74
44 285
133 134
44 56
14 15
3 15
69 387
52 316
58 387
74 75
133 628
106 107
95 107
122 133
15 16
47 48
36 48
54 371
107 108
96 108
21 203
18 30
128 140
21 32
80 81
69 81
23 212
12 212
140 141
113 124
129 141
10 22
81 82
54 65
102 114
22 23
123 591
43 55
54 330
37 259
112 591
79 423
87 98
51 315
114 115
103 115
55 56
28 39
43 329
76 88
88 99
29 40
55 330
77 89
65 371
2 13
62 73
110 122
3 14
51 63
35 46
133 627
95 106
36 47
128 139
21 22
69 80
23 211
12 211
113 114
139 651
10 21
54 55
95 483
102 113
39 313
44 288
43 54
54 329
87 88
51 314
28 29
17 29
43 328
76 87
88 89
109 121
29 30
61 62
50 62
121 122
2 3
62 63
94 95
83 95
105 519
110 121
3 4
125 595
35 36
24 36
43 287
32 287
95 96
84 96
127 128
116 128
51 318
9 20
68 69
57 69
128 129
117 129
127 649
69 70
42 53
58 70
94 481
83 481
101 102
90 102
23 210
12 210
50 313
10 11
139 650
31 43
95 482
102 103
75 86
91 103
123 135
39 312
93 521
43 44
16 27
32 44
64 76
135 136
108 119
124 136
5 17
17 28
76 77
65 77
97 109
6 18
128 609
50 61
98 110
82 93
39 51
23 34
83 94
25 260
115 126
131 143
24 35
72 84
56 67
43 286
32 286
80 424
116 127
9 10
57 68
89 100
30 41
42 43
90 101
134 135
50 312
104 521
22 204
31 42
70 388
113 597
75 76
15 174
123 134
39 311
93 520
77 414
16 17
105 522
125 598
64 75
5 16
49 50
38 50
109 110
130 142
128 608
50 51
127 652
82 83
71 83
138 649
94 484
142 143
23 24
12 24
83 84
115 116
104 116
56 57
45 57
80 423
116 117
105 117
124 597
57 58
46 58
89 90
78 90
66 372
109 581
10 202
30 31
19 31
90 91
63 74
79 91
111 123
121 582
104 520
22 203
4 15
31 32
20 32
52 64
76 412
65 412
113 596
141 142
15 173
123 124
112 124
68 426
77 413
64 65
53 65
85 97
124 592
5 6
26 38
38 49
97 98
70 81
86 98
118 130
130 141
27 39
11 22
128 607
71 82
119 131
14 176
3 176
12 23
60 72
44 55
104 115
69 386
52 315
58 386
1 13
122 123
45 56
93 105
124 596
54 370
96 107
21 202
18 29
127 610
116 610
78 89
126 138
66 371
10 201
19 30
129 140
63 64
111 122
138 652
121 581
40 318
4 5
24 212
25 37
65 411
76 411
52 63
68 425
103 114
37 38
124 591
26 37
70 71
59 71
118 129
130 131
55 329
77 88
11 12
65 370
92 104
14 175
3 175
44 45
33 45
125 137
51 62
69 385
58 385
123 594
112 594
79 426
66 78
137 138
124 595
54 369
18 19
7 19
21 201
99 111
129 130
40 52
111 112
100 112
132 144
40 317
24 211
73 85
44 287
54 328
103 104
14 26
51 313
85 86
106 118
43 327
136 137
47 59
59 70
118 119
107 119
77 78
55 328
65 369
80 92
92 103
110 111
33 44
81 93
51 52
125 136
123 593
84 95
112 593
143 144
79 425
51 317
66 77
114 126
117 128
55 67
99 110
58 69
23 209
12 209
40 51
139 649
132 143
95 481
91 102
25 26
24 210
121 628
44 286
32 43
54 327
14 25
124 135
51 312
17 18
106 117
65 76
47 58
6 17
98 109
83 484
21 33
80 91
113 125
39 50
25 259
131 142
54 66
13 25
72 83
43 285
32 285
37 260
87 99
51 316
117 118
28 40
120 132
58 59
61 73
50 311
70 387
91 92
2 14
121 627
93 519
105 521
32 33
94 106
125 597
124 125
35 47
51 311
127 139
65 66
68 80
6 7
139 140
127 651
98 99
94 483
83 483
101 113
39 40
139 652
131 132
95 484
39 314
105 116
46 57
120 131
79 90
104 519
22 202
20 31
70 386
113 595
112 123
105 520
94 105
77 412
53 64
125 596
43 288
32 288
80 426
38 39
127 138
86 97
9 21
68 79
27 38
71 72
127 650
119 130
42 54
94 482
83 482
101 112
50 314
60 71
104 105
15 176
75 87
13 14
45 46
34 46
93 522
93 104
105 106
16 28
108 120
46 47
78 79
67 79
127 609
116 609
126 137
138 139
49 61
66 370
19 20
8 20
79 80
128 610
138 651
82 94
20 21
52 53
41 53
22 201
70 385
112 113
23 35
68 424
52 318
115 127
53 54
77 411
74 86
56 68
80 425
26 27
15 27
86 87
89 101
27 28
48 60
10 204
119 120
30 42
14 174
3 174
104 522
76 414
65 414
113 598
1 2
15 175
22 34
34 45
93 94
124 594
7 18
67 78
126 127
127 608
116 608
66 369
8 19
100 111
138 650
40 316
41 52
68 423
69 388
52 317
58 388
74 85
122 134
124 598
15 26
54 372
59 60
21 204
107 118
55 327
109 582
48 59
92 93
10 203
63 75
14 173
3 173
33 34
81 92
76 413
4 16
65 413
125 126
123 592
112 592
22 33
34 35
66 67
79 424
114 125
37 49
7 8
124 593
